param set_len = 20;
param target := 699772;
set values := 76501, 43341, 83468, 93525, 105287, 78719, 75286, 18802, 129721, 57321, 23638, 66926, 121668, 59304, 27667, 111269, 48609, 28554, 66673, 103839, ;
